c A SAT instance generated from a 3-CNF formula that had 40 clauses and 10 variables
p cnf 10 40
-1 7 3 0
7 -6 -5 0
-3 5 -4 0
5 9 8 0
-7 -2 -3 0
-8 -9 -2 0
10 4 -8 0
2 -10 -3 0
9 -6 2 0
-9 -3 -5 0
-9 -7 4 0
4 7 6 0
6 -8 -7 0
4 -8 -9 0
-2 -1 -6 0
-3 -2 5 0
-3 -9 -1 0
-2 -8 1 0
-1 -4 -9 0
1 -6 4 0
9 -10 2 0
-10 4 -9 0
-10 -1 2 0
6 -2 -1 0
-4 10 5 0
-9 6 -7 0
8 -7 -5 0
9 -1 -7 0
-8 -2 -6 0
-1 7 -4 0
-6 -5 3 0
2 -5 10 0
10 8 -6 0
-7 -8 3 0
-10 4 3 0
-3 -9 -7 0
-3 -8 -9 0
4 -6 9 0
-3 -1 -4 0
5 6 -8 0
